&CONTROL
  calculation = 'relax',
        title = 'Pt55 DRC DFT-PBE',
       prefix = 'calc',
    verbosity = 'high',
   wf_collect = .true.,
 restart_mode = 'restart',
        nstep = 10000,
       iprint = 1,
      tprnfor = .true.,
       outdir = './out',
      disk_io = 'default',
   pseudo_dir = '/home/james/work/espresso/SSSP_1.3.0_PBE_efficiency',
      tstress = .false.,
      tprnfor = .true.,
forc_conv_thr = 1.0D-3,
etot_conv_thr = 1.0D-4,
/
&SYSTEM
         ecutwfc          = 60,
         ecutrho          = 480,
         ntyp             = 2,
         nat              = 56,
         ibrav            = 0,
         nspin            = 2,
 starting_magnetization(1) = 0.01,
         input_dft        = 'rVV10',
         occupations      = 'smearing',
         smearing         = 'gauss',
         degauss          = 0.01,
/
&ELECTRONS
 electron_maxstep = 60,
         conv_thr = 1.0D-6,
      mixing_beta = 0.2,
  diagonalization = 'cg',
 scf_must_converge = .false.,
/
&IONS
 ion_dynamics = 'bfgs',
/
&CELL
 cell_dofree = 'ibrav',
/

ATOMIC_SPECIES
Pt 195.084 pt_pbe_v1.4.uspp.F.UPF
H  1.008 H.pbe-rrkjus_psl.1.0.0.UPF 

K_POINTS gamma

CELL_PARAMETERS angstrom
20.00000000000000  0.00000000000000  0.00000000000000
 0.00000000000000 20.00000000000000  0.00000000000000
 0.00000000000000  0.00000000000000 20.00000000000000

ATOMIC_POSITIONS angstrom
Pt      -2.36938386      -2.57962205      -4.29319088
Pt       1.75946442      -3.81112672      -0.94786924
Pt      -0.81590848      -4.17728303      -0.27215244
Pt      -1.06982194      -0.28112837      -2.34055331
Pt      -2.67772645       1.86096943      -2.90085584
Pt      -0.43297422       1.48497702      -4.44934058
Pt      -2.45684460      -0.00637152      -4.94615748
Pt      -4.38741803       0.18300469       1.70534220
Pt       0.66497499      -0.88634178       1.59497649
Pt       0.98128514       1.29844650      -1.60249860
Pt       2.57392711       0.28573694       0.17576039
Pt       1.03389394      -3.66371798       1.64716607
Pt      -3.64827746      -0.80397016      -2.72946756
Pt      -2.40678724      -2.64409846       4.54314991
Pt      -3.97579922      -2.34350694       2.38912832
Pt       4.87966497       0.53965785      -0.95683430
Pt       2.58284576       3.85933271       0.88271364
Pt       4.27119664      -0.59945359      -3.27540338
Pt      -1.78729576       1.04637005      -0.25382288
Pt      -4.16050097       2.75173803       1.15443371
Pt      -2.81892372      -3.29702589      -1.89642254
Pt       0.61237674       4.31661857       2.56783005
Pt      -0.07796237      -1.28820446      -4.55810558
Pt       4.48795604      -1.00410833       1.33081108
Pt       3.64189014       1.92854296      -2.81743171
Pt       4.52895897       3.22549914      -0.70151192
Pt      -0.45902507       3.41868827      -2.51804126
Pt       0.41424881       1.69458353       0.98929090
Pt      -1.76517914      -0.04453429       2.03680025
Pt       3.81555060       0.30495568       3.54555026
Pt       3.57989508      -3.47451759       0.95714087
Pt      -4.13617380      -1.62808442      -0.23206195
Pt      -1.34269696      -0.17114128       4.57460253
Pt      -2.99611087       1.80832672       3.45897953
Pt      -1.43912195      -1.57047284      -0.03720542
Pt       2.14891049      -2.16195674      -3.30613856
Pt      -4.28631712       0.95222487      -0.85050474
Pt       1.94121287       0.37218054      -4.08550106
Pt       4.30548744       1.76130457       1.44177988
Pt      -3.40528070      -4.06667897       0.50385973
Pt       2.66652749      -2.04331449       3.01371106
Pt      -1.51736842      -3.33424054       2.16130488
Pt       0.15941309      -2.44189501       3.91878770
Pt       2.07151218       3.74571428      -1.68035909
Pt       0.03440575       4.14879355      -0.00005604
Pt      -2.42950308       3.47124432      -0.76679281
Pt       1.25290508      -0.00688810       4.07334094
Pt      -1.82294600       3.57944845       1.87478515
Pt       1.64020380       3.02357302      -4.18586347
Pt      -0.35520790       2.10290054       3.65326895
Pt      -0.21041656      -3.22586195      -2.67318858
Pt       3.90646110      -2.03797962      -1.16086934
Pt       1.06778043      -1.34466904      -1.10006324
Pt       2.21587871       2.30224101       3.06741277
Pt      -3.98785581      -0.52887922       4.27633656
H       -1.60085770      -1.60995264      -5.85906261
