 &CONTROL
  calculation = 'relax',
        title = 'calc',
       prefix = 'calc',
    verbosity = 'high',
   wf_collect = .true.,
 restart_mode = 'restart',
        nstep = 10000,
       iprint = 1,
      tprnfor = .true.,
       outdir = './out',
      disk_io = 'default',
   pseudo_dir = '/home/james/work/espresso/SSSP_1.3.0_PBE_efficiency',
      tstress = .false.,
      tprnfor = .true.,
forc_conv_thr = 1.0D-3
etot_conv_thr = 1.0D-4
/
&SYSTEM
         ecutwfc          = 60
         ecutrho          = 480
         ntyp             = 2
         nat              = 56
         ibrav            = 0
                    nspin = 2
starting_magnetization(1) = 0.01,
starting_magnetization(2) = 0.02,
                input_dft = 'rVV10',
              occupations = 'smearing',
                 smearing = 'gauss',
                  degauss = 0.01
/
 &ELECTRONS
 electron_maxstep = 60,
         conv_thr = 1.0D-6,
      mixing_beta = 0.2,
  diagonalization = 'cg'
scf_must_converge = .false.
/
  &IONS
    ion_dynamics = 'bfgs'
/
  &CELL
     cell_dofree = 'ibrav'
/

ATOMIC_SPECIES
Pt 195.084 pt_pbe_v1.4.uspp.F.UPF
H    1.008 H.pbe-rrkjus_psl.1.0.0.UPF 

K_POINTS gamma

CELL_PARAMETERS angstrom
18.00000000000000  0.00000000000000  0.00000000000000
 0.00000000000000 18.00000000000000  0.00000000000000
 0.00000000000000  0.00000000000000 18.00000000000000

ATOMIC_POSITIONS angstrom
Pt      -3.92000000      -1.96000000      -1.96000000       
Pt      -1.96000000      -3.92000000      -1.96000000       
Pt      -1.96000000      -1.96000000      -3.92000000       
Pt      -3.92000000      -3.92000000       0.00000000       
Pt      -3.92000000      -1.96000000       1.96000000       
Pt      -1.96000000      -3.92000000       1.96000000       
Pt      -1.96000000      -1.96000000       0.00000000       
Pt      -1.96000000      -1.96000000       3.92000000       
Pt      -3.92000000       0.00000000      -3.92000000       
Pt      -3.92000000       1.96000000      -1.96000000       
Pt      -1.96000000       0.00000000      -1.96000000       
Pt      -1.96000000       1.96000000      -3.92000000       
Pt      -3.92000000       0.00000000       0.00000000       
Pt      -3.92000000       1.96000000       1.96000000       
Pt      -1.96000000       0.00000000       1.96000000       
Pt      -1.96000000       1.96000000       0.00000000       
Pt      -3.92000000       0.00000000       3.92000000       
Pt      -1.96000000       1.96000000       3.92000000       
Pt      -1.96000000       3.92000000      -1.96000000       
Pt      -3.92000000       3.92000000       0.00000000       
Pt      -1.96000000       3.92000000       1.96000000       
Pt       0.00000000      -3.92000000      -3.92000000       
Pt       0.00000000      -1.96000000      -1.96000000       
Pt       1.96000000      -3.92000000      -1.96000000       
Pt       1.96000000      -1.96000000      -3.92000000       
Pt       0.00000000      -3.92000000       0.00000000       
Pt       0.00000000      -1.96000000       1.96000000       
Pt       1.96000000      -3.92000000       1.96000000       
Pt       1.96000000      -1.96000000       0.00000000       
Pt       0.00000000      -3.92000000       3.92000000       
Pt       1.96000000      -1.96000000       3.92000000       
Pt       0.00000000       0.00000000      -3.92000000       
Pt       0.00000000       1.96000000      -1.96000000       
Pt       1.96000000       0.00000000      -1.96000000       
Pt       1.96000000       1.96000000      -3.92000000       
Pt       0.00000000       0.00000000       0.00000000       
Pt       0.00000000       1.96000000       1.96000000       
Pt       1.96000000       0.00000000       1.96000000       
Pt       1.96000000       1.96000000       0.00000000       
Pt       0.00000000       0.00000000       3.92000000       
Pt       1.96000000       1.96000000       3.92000000       
Pt       0.00000000       3.92000000      -3.92000000       
Pt       1.96000000       3.92000000      -1.96000000       
Pt       0.00000000       3.92000000       0.00000000       
Pt       1.96000000       3.92000000       1.96000000       
Pt       0.00000000       3.92000000       3.92000000       
Pt       3.92000000      -1.96000000      -1.96000000       
Pt       3.92000000      -3.92000000       0.00000000       
Pt       3.92000000      -1.96000000       1.96000000       
Pt       3.92000000       0.00000000      -3.92000000       
Pt       3.92000000       1.96000000      -1.96000000       
Pt       3.92000000       0.00000000       0.00000000       
Pt       3.92000000       1.96000000       1.96000000       
Pt       3.92000000       0.00000000       3.92000000       
Pt       3.92000000       3.92000000       0.00000000       
H       -3.36388868      -3.36388868      -3.36388868       

