 &CONTROL
  calculation = 'relax',
        title = 'calc',
       prefix = 'calc',
    verbosity = 'high',
   wf_collect = .true.,
 restart_mode = 'restart',
        nstep = 10000,
       iprint = 1,
      tprnfor = .true.,
       outdir = './out',
      disk_io = 'default',
   pseudo_dir = '/home/james/work/espresso/SSSP_1.3.0_PBE_efficiency'
      tstress = .false.,
      tprnfor = .true.,
forc_conv_thr = 1.0D-3
etot_conv_thr = 1.0D-4
/
&SYSTEM
         ecutwfc          = 60
         ecutrho          = 480
         ntyp             = 2
         nat              = 117
         ibrav            = 0
                    nspin = 2
starting_magnetization(1) = 0.01,
starting_magnetization(2) = 0.02,
                input_dft = 'rVV10',
              occupations = 'smearing',
                 smearing = 'gauss',
                  degauss = 0.01
/
 &ELECTRONS
 electron_maxstep = 60,
         conv_thr = 1.0D-6,
      mixing_mode = 'local-TF',
      mixing_beta = 0.1,
  diagonalization = 'cg'
scf_must_converge = .false.
/
  &IONS
    ion_dynamics = 'bfgs'
/
  &CELL
     cell_dofree = 'ibrav'
/

ATOMIC_SPECIES
Pt 195.084 pt_pbe_v1.4.uspp.F.UPF
H    1.008 H.pbe-rrkjus_psl.1.0.0.UPF 

K_POINTS gamma

CELL_PARAMETERS angstrom
25.00000000000000  0.00000000000000  0.00000000000000
 0.00000000000000 25.00000000000000  0.00000000000000
 0.00000000000000  0.00000000000000 25.00000000000000

ATOMIC_POSITIONS angstrom
Pt     -5.794188408074969     -3.845190805358783      0.000000000000000
Pt     -3.845190805358783     -5.794188408074969      0.000000000000000
Pt     -4.043879405635682     -4.043879405635682     -2.118155602951930
Pt     -4.043879405635682     -4.043879405635682      2.118155602951930
Pt     -5.794188408074969      0.000000000000000     -3.845190805358783
Pt     -4.043879405635682     -2.118155602951930     -4.043879405635682
Pt     -3.845190805358783      0.000000000000000     -5.794188408074969
Pt     -5.847210608148863     -1.951371402719495     -1.951371402719495
Pt     -5.925211608257568      0.000000000000000      0.000000000000000
Pt     -3.886108605415807     -1.971961202748189      0.000000000000000
Pt     -3.886108605415807      0.000000000000000     -1.971961202748189
Pt     -5.847210608148863     -1.951371402719495      1.951371402719495
Pt     -5.794188408074969      0.000000000000000      3.845190805358783
Pt     -4.043879405635682     -2.118155602951930      4.043879405635682
Pt     -3.886108605415807      0.000000000000000      1.971961202748189
Pt     -3.845190805358783      0.000000000000000      5.794188408074969
Pt     -4.043879405635682      2.118155602951930     -4.043879405635682
Pt     -5.847210608148863      1.951371402719495     -1.951371402719495
Pt     -5.794188408074969      3.845190805358783      0.000000000000000
Pt     -3.886108605415807      1.971961202748189      0.000000000000000
Pt     -4.043879405635682      4.043879405635682     -2.118155602951930
Pt     -5.847210608148863      1.951371402719495      1.951371402719495
Pt     -4.043879405635682      2.118155602951930      4.043879405635682
Pt     -4.043879405635682      4.043879405635682      2.118155602951930
Pt     -3.845190805358783      5.794188408074969      0.000000000000000
Pt     -2.118155602951930     -4.043879405635682     -4.043879405635682
Pt      0.000000000000000     -5.794188408074969     -3.845190805358783
Pt      0.000000000000000     -3.845190805358783     -5.794188408074969
Pt     -1.951371402719495     -5.847210608148863     -1.951371402719495
Pt     -1.971961202748189     -3.886108605415807      0.000000000000000
Pt      0.000000000000000     -5.925211608257568      0.000000000000000
Pt      0.000000000000000     -3.886108605415807     -1.971961202748189
Pt     -1.951371402719495     -5.847210608148863      1.951371402719495
Pt     -2.118155602951930     -4.043879405635682      4.043879405635682
Pt      0.000000000000000     -5.794188408074969      3.845190805358783
Pt      0.000000000000000     -3.886108605415807      1.971961202748189
Pt      0.000000000000000     -3.845190805358783      5.794188408074969
Pt     -1.951371402719495     -1.951371402719495     -5.847210608148863
Pt     -1.971961202748189      0.000000000000000     -3.886108605415807
Pt      0.000000000000000     -1.971961202748189     -3.886108605415807
Pt      0.000000000000000      0.000000000000000     -5.925211608257568
Pt     -2.021850602817717     -2.021850602817717     -2.021850602817717
Pt     -1.967182802741530      0.000000000000000      0.000000000000000
Pt      0.000000000000000     -1.967182802741530      0.000000000000000
Pt      0.000000000000000      0.000000000000000     -1.967182802741530
Pt     -2.021850602817717     -2.021850602817717      2.021850602817717
Pt     -1.971961202748189      0.000000000000000      3.886108605415807
Pt      0.000000000000000     -1.971961202748189      3.886108605415807
Pt      0.000000000000000      0.000000000000000      1.967182802741530
Pt     -1.951371402719495     -1.951371402719495      5.847210608148863
Pt      0.000000000000000      0.000000000000000      5.925211608257568
Pt     -1.951371402719495      1.951371402719495     -5.847210608148863
Pt     -2.118155602951930      4.043879405635682     -4.043879405635682
Pt      0.000000000000000      1.971961202748189     -3.886108605415807
Pt      0.000000000000000      3.845190805358783     -5.794188408074969
Pt     -2.021850602817717      2.021850602817717     -2.021850602817717
Pt     -1.971961202748189      3.886108605415807      0.000000000000000
Pt      0.000000000000000      1.967182802741530      0.000000000000000
Pt      0.000000000000000      3.886108605415807     -1.971961202748189
Pt     -2.021850602817717      2.021850602817717      2.021850602817717
Pt     -2.118155602951930      4.043879405635682      4.043879405635682
Pt      0.000000000000000      1.971961202748189      3.886108605415807
Pt      0.000000000000000      3.886108605415807      1.971961202748189
Pt     -1.951371402719495      1.951371402719495      5.847210608148863
Pt      0.000000000000000      3.845190805358783      5.794188408074969
Pt      0.000000000000000      5.794188408074969     -3.845190805358783
Pt     -1.951371402719495      5.847210608148863     -1.951371402719495
Pt      0.000000000000000      5.925211608257568      0.000000000000000
Pt     -1.951371402719495      5.847210608148863      1.951371402719495
Pt      0.000000000000000      5.794188408074969      3.845190805358783
Pt      2.118155602951930     -4.043879405635682     -4.043879405635682
Pt      1.951371402719495     -5.847210608148863     -1.951371402719495
Pt      1.971961202748189     -3.886108605415807      0.000000000000000
Pt      3.845190805358783     -5.794188408074969      0.000000000000000
Pt      4.043879405635682     -4.043879405635682     -2.118155602951930
Pt      1.951371402719495     -5.847210608148863      1.951371402719495
Pt      2.118155602951930     -4.043879405635682      4.043879405635682
Pt      4.043879405635682     -4.043879405635682      2.118155602951930
Pt      1.951371402719495     -1.951371402719495     -5.847210608148863
Pt      1.971961202748189      0.000000000000000     -3.886108605415807
Pt      4.043879405635682     -2.118155602951930     -4.043879405635682
Pt      3.845190805358783      0.000000000000000     -5.794188408074969
Pt      2.021850602817717     -2.021850602817717     -2.021850602817717
Pt      1.967182802741530      0.000000000000000      0.000000000000000
Pt      3.886108605415807     -1.971961202748189      0.000000000000000
Pt      3.886108605415807      0.000000000000000     -1.971961202748189
Pt      2.021850602817717     -2.021850602817717      2.021850602817717
Pt      1.971961202748189      0.000000000000000      3.886108605415807
Pt      4.043879405635682     -2.118155602951930      4.043879405635682
Pt      3.886108605415807      0.000000000000000      1.971961202748189
Pt      1.951371402719495     -1.951371402719495      5.847210608148863
Pt      3.845190805358783      0.000000000000000      5.794188408074969
Pt      1.951371402719495      1.951371402719495     -5.847210608148863
Pt      2.118155602951930      4.043879405635682     -4.043879405635682
Pt      4.043879405635682      2.118155602951930     -4.043879405635682
Pt      2.021850602817717      2.021850602817717     -2.021850602817717
Pt      1.971961202748189      3.886108605415807      0.000000000000000
Pt      3.886108605415807      1.971961202748189      0.000000000000000
Pt      4.043879405635682      4.043879405635682     -2.118155602951930
Pt      2.021850602817717      2.021850602817717      2.021850602817717
Pt      2.118155602951930      4.043879405635682      4.043879405635682
Pt      4.043879405635682      2.118155602951930      4.043879405635682
Pt      4.043879405635682      4.043879405635682      2.118155602951930
Pt      1.951371402719495      1.951371402719495      5.847210608148863
Pt      1.951371402719495      5.847210608148863     -1.951371402719495
Pt      3.845190805358783      5.794188408074969      0.000000000000000
Pt      1.951371402719495      5.847210608148863      1.951371402719495
Pt      5.794188408074969     -3.845190805358783      0.000000000000000
Pt      5.794188408074969      0.000000000000000     -3.845190805358783
Pt      5.847210608148863     -1.951371402719495     -1.951371402719495
Pt      5.925211608257568      0.000000000000000      0.000000000000000
Pt      5.847210608148863     -1.951371402719495      1.951371402719495
Pt      5.794188408074969      0.000000000000000      3.845190805358783
Pt      5.847210608148863      1.951371402719495     -1.951371402719495
Pt      5.794188408074969      3.845190805358783      0.000000000000000
Pt      5.847210608148863      1.951371402719495      1.951371402719495
H      -6.014614904999999     -4.853880020000000     -1.531088530000000
