 &CONTROL
  calculation = 'relax',
        title = 'calc',
       prefix = 'calc',
    verbosity = 'high',
   wf_collect = .true.,
 restart_mode = 'restart',
        nstep = 10000,
       iprint = 1,
      tprnfor = .true.,
       outdir = './out',
      disk_io = 'default',
   pseudo_dir = '/home/carlos23036/work/IC/pseudos',
      tstress = .false.,
      tprnfor = .true.,
forc_conv_thr = 1.0D-3
etot_conv_thr = 1.0D-4
/
&SYSTEM
         ecutwfc          = 60
         ecutrho          = 480
         ntyp             = 1
         nat              = 55
         ibrav            = 0
                    nspin = 2
starting_magnetization(1) = 0.01,
starting_magnetization(2) = 0.02,
                input_dft = 'rVV10',
              occupations = 'smearing',
                 smearing = 'gauss',
                  degauss = 0.01
/
 &ELECTRONS
 electron_maxstep = 60,
         conv_thr = 1.0D-6,
      mixing_beta = 0.2,
  diagonalization = 'cg'
scf_must_converge = .false.
/
  &IONS
    ion_dynamics = 'bfgs'
/
  &CELL
     cell_dofree = 'ibrav'
/

ATOMIC_SPECIES
Pt 195.084 pt_pbe_v1.4.uspp.F.UPF

K_POINTS gamma

CELL_PARAMETERS angstrom
20.00000000000000  0.00000000000000  0.00000000000000
 0.00000000000000 20.00000000000000  0.00000000000000
 0.00000000000000  0.00000000000000 20.00000000000000

ATOMIC_POSITIONS angstrom
Pt   -2.36920644  -2.57345804  -4.28823984
Pt    1.76127056  -3.80867004  -0.95530584
Pt   -0.82302444  -4.17217604  -0.27640784
Pt   -1.07252644  -0.27602004  -2.33756584
Pt   -2.67685444   1.84836596  -2.89434184
Pt   -0.43718844   1.48752296  -4.45174384
Pt   -2.45791044  -0.00390204  -4.95030784
Pt   -4.39527444   0.18336196   1.70814516
Pt    0.66182156  -0.88258104   1.60226116
Pt    0.98258156   1.29209696  -1.61660384
Pt    2.57401656   0.28594696   0.18722016
Pt    1.03645956  -3.65891604   1.64892216
Pt   -3.64441444  -0.80408604  -2.73103584
Pt   -2.40209644  -2.64124004   4.53941316
Pt   -3.96616444  -2.33871804   2.38521816
Pt    4.88065156   0.54204996  -0.95209484
Pt    2.58116756   3.85529396   0.88649016
Pt    4.27169256  -0.60012504  -3.27291784
Pt   -1.79518244   1.05249396  -0.24481684
Pt   -4.15169044   2.74561396   1.15192016
Pt   -2.82264744  -3.30073404  -1.89485984
Pt    0.61518156   4.31020996   2.56913816
Pt   -0.08276944  -1.27999004  -4.55767384
Pt    4.50141556  -0.99495704   1.32794116
Pt    3.63567156   1.91517996  -2.80770584
Pt    4.52858556   3.22730496  -0.70158084
Pt   -0.45280944   3.41164296  -2.52240984
Pt    0.41971256   1.69951396   0.98300316
Pt   -1.76691244  -0.03802404   2.04912316
Pt    3.82238456   0.30174296   3.54292416
Pt    3.57609556  -3.46551404   0.95513116
Pt   -4.13648844  -1.63394904  -0.23236284
Pt   -1.34688944  -0.17407204   4.58328216
Pt   -2.99952844   1.80689596   3.46114916
Pt   -1.44634944  -1.56737604  -0.03126184
Pt    2.14332456  -2.15343404  -3.30752384
Pt   -4.28888244   0.94775296  -0.84662584
Pt    1.94558756   0.37165896  -4.09824784
Pt    4.31085256   1.76417196   1.44218816
Pt   -3.40463744  -4.06899604   0.50575816
Pt    2.67248956  -2.03879204   3.00592516
Pt   -1.51741044  -3.33696804   2.16009316
Pt    0.15896756  -2.43961004   3.91896916
Pt    2.07474956   3.73697696  -1.67954584
Pt    0.03488756   4.14886196   0.00158416
Pt   -2.43056444   3.47379196  -0.77275084
Pt    1.25392956  -0.00927004   4.07334416
Pt   -1.81900844   3.57362796   1.86859216
Pt    1.64482656   3.01718096  -4.18549984
Pt   -0.35765844   2.09707596   3.64768716
Pt   -0.21481244  -3.21794704  -2.67643184
Pt    3.90022156  -2.02537204  -1.15396584
Pt    1.06811856  -1.34957504  -1.10030784
Pt    2.21095156   2.28854196   3.06394016
Pt   -3.98871344  -0.53040604   4.27077216
