 &CONTROL
  calculation = 'relax',
        title = 'calc',
       prefix = 'calc',
    verbosity = 'high',
   wf_collect = .true.,
 restart_mode = 'restart',
        nstep = 10000,
       iprint = 1,
      tprnfor = .true.,
       outdir = './out',
      disk_io = 'default',
   pseudo_dir = '/home/carlos23036/work/IC/pseudos',
      tstress = .false.,
      tprnfor = .true.,
forc_conv_thr = 1.0D-3
etot_conv_thr = 1.0D-4
/
&SYSTEM
         ecutwfc          = 60
         ecutrho          = 480
         ntyp             = 2
         nat              = 56
         ibrav            = 0
                    nspin = 2
starting_magnetization(1) = 0.01,
starting_magnetization(2) = 0.02,
                input_dft = 'rVV10',
              occupations = 'smearing',
                 smearing = 'gauss',
                  degauss = 0.01
/
 &ELECTRONS
 electron_maxstep = 60,
         conv_thr = 1.0D-6,
      mixing_beta = 0.2,
  diagonalization = 'cg'
scf_must_converge = .false.
/
  &IONS
    ion_dynamics = 'bfgs'
/
  &CELL
     cell_dofree = 'ibrav'
/

ATOMIC_SPECIES
Pt 195.084 pt_pbe_v1.4.uspp.F.UPF
H    1.008 H.pbe-rrkjus_psl.1.0.0.UPF 

K_POINTS gamma

CELL_PARAMETERS angstrom
18.00000000000000  0.00000000000000  0.00000000000000
 0.00000000000000 18.00000000000000  0.00000000000000
 0.00000000000000  0.00000000000000 18.00000000000000

ATOMIC_POSITIONS angstrom
Pt      -5.78636839      -3.83312810       0.00000000       0.00000000
Pt      -3.83312810      -5.78636839      -0.00000000       0.00000000
Pt      -4.02583811      -4.02583811      -2.10453196       0.00000000
Pt      -4.02583811      -4.02583811       2.10453196       0.00000000
Pt      -5.78636839       0.00000000      -3.83312810       0.00000000
Pt      -4.02583811      -2.10453196      -4.02583811       0.00000000
Pt      -3.83312810      -0.00000000      -5.78636839       0.00000000
Pt      -5.86835324      -1.94248175      -1.94248175       0.00000000
Pt      -5.98892814       0.00000000       0.00000000       0.00000000
Pt      -3.88711825      -1.95756236       0.00000000       0.00000000
Pt      -3.88711825      -0.00000000      -1.95756236       0.00000000
Pt      -5.86835324      -1.94248175       1.94248175       0.00000000
Pt      -5.78636839       0.00000000       3.83312810       0.00000000
Pt      -4.02583811      -2.10453196       4.02583811       0.00000000
Pt      -3.88711825       0.00000000       1.95756236       0.00000000
Pt      -3.83312810      -0.00000000       5.78636839       0.00000000
Pt      -4.02583811       2.10453196      -4.02583811       0.00000000
Pt      -5.86835324       1.94248175      -1.94248175       0.00000000
Pt      -5.78636839       3.83312810       0.00000000       0.00000000
Pt      -3.88711825       1.95756236       0.00000000       0.00000000
Pt      -4.02583811       4.02583811      -2.10453196       0.00000000
Pt      -5.86835324       1.94248175       1.94248175       0.00000000
Pt      -4.02583811       2.10453196       4.02583811       0.00000000
Pt      -4.02583811       4.02583811       2.10453196       0.00000000
Pt      -3.83312810       5.78636839      -0.00000000       0.00000000
Pt      -2.10453196      -4.02583811      -4.02583811       0.00000000
Pt       0.00000000      -5.78636839      -3.83312810       0.00000000
Pt       0.00000000      -3.83312810      -5.78636839       0.00000000
Pt      -1.94248175      -5.86835324      -1.94248175       0.00000000
Pt      -1.95756236      -3.88711825      -0.00000000       0.00000000
Pt      -0.00000000      -5.98892814      -0.00000000       0.00000000
Pt       0.00000000      -3.88711825      -1.95756236       0.00000000
Pt      -1.94248175      -5.86835324       1.94248175       0.00000000
Pt      -2.10453196      -4.02583811       4.02583811       0.00000000
Pt      -0.00000000      -5.78636839       3.83312810       0.00000000
Pt      -0.00000000      -3.88711825       1.95756236       0.00000000
Pt       0.00000000      -3.83312810       5.78636839       0.00000000
Pt      -1.94248175      -1.94248175      -5.86835324       0.00000000
Pt      -1.95756236       0.00000000      -3.88711825       0.00000000
Pt       0.00000000      -1.95756236      -3.88711825       0.00000000
Pt       0.00000000       0.00000000      -5.98892814       0.00000000
Pt      -2.01516412      -2.01516412      -2.01516412       0.00000000
Pt      -1.96547193      -0.00000000       0.00000000       0.00000000
Pt       0.00000000      -1.96547193      -0.00000000       0.00000000
Pt       0.00000000       0.00000000      -1.96547193       0.00000000
Pt      -2.01516412      -2.01516412       2.01516412       0.00000000
Pt      -1.95756236      -0.00000000       3.88711825       0.00000000
Pt       0.00000000      -1.95756236       3.88711825       0.00000000
Pt       0.00000000      -0.00000000       1.96547193       0.00000000
Pt      -1.94248175      -1.94248175       5.86835324       0.00000000
Pt      -0.00000000       0.00000000       5.98892814       0.00000000
Pt      -1.94248175       1.94248175      -5.86835324       0.00000000
Pt      -2.10453196       4.02583811      -4.02583811       0.00000000
Pt      -0.00000000       1.95756236      -3.88711825       0.00000000
Pt      -0.00000000       3.83312810      -5.78636839       0.00000000
Pt      -2.01516412       2.01516412      -2.01516412       0.00000000
Pt      -1.95756236       3.88711825       0.00000000       0.00000000
Pt       0.00000000       1.96547193       0.00000000       0.00000000
Pt      -0.00000000       3.88711825      -1.95756236       0.00000000
Pt      -2.01516412       2.01516412       2.01516412       0.00000000
Pt      -2.10453196       4.02583811       4.02583811       0.00000000
Pt      -0.00000000       1.95756236       3.88711825       0.00000000
Pt       0.00000000       3.88711825       1.95756236       0.00000000
Pt      -1.94248175       1.94248175       5.86835324       0.00000000
Pt      -0.00000000       3.83312810       5.78636839       0.00000000
Pt      -0.00000000       5.78636839      -3.83312810       0.00000000
Pt      -1.94248175       5.86835324      -1.94248175       0.00000000
Pt       0.00000000       5.98892814       0.00000000       0.00000000
Pt      -1.94248175       5.86835324       1.94248175       0.00000000
Pt       0.00000000       5.78636839       3.83312810       0.00000000
Pt       2.10453196      -4.02583811      -4.02583811       0.00000000
Pt       1.94248175      -5.86835324      -1.94248175       0.00000000
Pt       1.95756236      -3.88711825      -0.00000000       0.00000000
Pt       3.83312810      -5.78636839       0.00000000       0.00000000
Pt       4.02583811      -4.02583811      -2.10453196       0.00000000
Pt       1.94248175      -5.86835324       1.94248175       0.00000000
Pt       2.10453196      -4.02583811       4.02583811       0.00000000
Pt       4.02583811      -4.02583811       2.10453196       0.00000000
Pt       1.94248175      -1.94248175      -5.86835324       0.00000000
Pt       1.95756236      -0.00000000      -3.88711825       0.00000000
Pt       4.02583811      -2.10453196      -4.02583811       0.00000000
Pt       3.83312810       0.00000000      -5.78636839       0.00000000
Pt       2.01516412      -2.01516412      -2.01516412       0.00000000
Pt       1.96547193      -0.00000000       0.00000000       0.00000000
Pt       3.88711825      -1.95756236       0.00000000       0.00000000
Pt       3.88711825      -0.00000000      -1.95756236       0.00000000
Pt       2.01516412      -2.01516412       2.01516412       0.00000000
Pt       1.95756236      -0.00000000       3.88711825       0.00000000
Pt       4.02583811      -2.10453196       4.02583811       0.00000000
Pt       3.88711825       0.00000000       1.95756236       0.00000000
Pt       1.94248175      -1.94248175       5.86835324       0.00000000
Pt       3.83312810       0.00000000       5.78636839       0.00000000
Pt       1.94248175       1.94248175      -5.86835324       0.00000000
Pt       2.10453196       4.02583811      -4.02583811       0.00000000
Pt       4.02583811       2.10453196      -4.02583811       0.00000000
Pt       2.01516412       2.01516412      -2.01516412       0.00000000
Pt       1.95756236       3.88711825      -0.00000000       0.00000000
Pt       3.88711825       1.95756236      -0.00000000       0.00000000
Pt       4.02583811       4.02583811      -2.10453196       0.00000000
Pt       2.01516412       2.01516412       2.01516412       0.00000000
Pt       2.10453196       4.02583811       4.02583811       0.00000000
Pt       4.02583811       2.10453196       4.02583811       0.00000000
Pt       4.02583811       4.02583811       2.10453196       0.00000000
Pt       1.94248175       1.94248175       5.86835324       0.00000000
Pt       1.94248175       5.86835324      -1.94248175       0.00000000
Pt       3.83312810       5.78636839      -0.00000000       0.00000000
Pt       1.94248175       5.86835324       1.94248175       0.00000000
Pt       5.78636839      -3.83312810      -0.00000000       0.00000000
Pt       5.78636839      -0.00000000      -3.83312810       0.00000000
Pt       5.86835324      -1.94248175      -1.94248175       0.00000000
Pt       5.98892814       0.00000000      -0.00000000       0.00000000
Pt       5.86835324      -1.94248175       1.94248175       0.00000000
Pt       5.78636839      -0.00000000       3.83312810       0.00000000
Pt       5.86835324       1.94248175      -1.94248175       0.00000000
Pt       5.78636839       3.83312810       0.00000000       0.00000000
Pt       5.86835324       1.94248175       1.94248175       0.00000000
H       -7.27931498      -4.83866799       0.00000000       1.00000000
