 &CONTROL
  calculation = 'relax',
        title = 'calc',
       prefix = 'calc',
    verbosity = 'high',
   wf_collect = .true.,
 restart_mode = 'restart',
        nstep = 10000,
       iprint = 1,
      tprnfor = .true.,
       outdir = './out',
      disk_io = 'default',
   pseudo_dir = '/home/james/work/espresso/SSSP_1.3.0_PBE_efficiency'
      tstress = .false.,
      tprnfor = .true.,
forc_conv_thr = 1.0D-3
etot_conv_thr = 1.0D-4
/
&SYSTEM
         ecutwfc          = 60
         ecutrho          = 480
         ntyp             = 1
         nat              = 116
         ibrav            = 0
                    nspin = 2
starting_magnetization(1) = 0.01,
starting_magnetization(2) = 0.02,
                input_dft = 'rVV10',
              occupations = 'smearing',
                 smearing = 'gauss',
                  degauss = 0.01
/
 &ELECTRONS
 electron_maxstep = 60,
         conv_thr = 1.0D-6,
      mixing_mode = 'local-TF'
      mixing_beta = 0.1,
  diagonalization = 'cg'
scf_must_converge = .false.
/
  &IONS
    ion_dynamics = 'bfgs'
/
  &CELL
     cell_dofree = 'ibrav'
/

ATOMIC_SPECIES
Pt 195.084 pt_pbe_v1.4.uspp.F.UPF

K_POINTS gamma

CELL_PARAMETERS angstrom
25.00000000000000  0.00000000000000  0.00000000000000
 0.00000000000000 25.00000000000000  0.00000000000000
 0.00000000000000  0.00000000000000 25.00000000000000

ATOMIC_POSITIONS angstrom
Pt              -5.7941883108       -3.8451917849       -0.0000000000
Pt              -3.8451917849       -5.7941883108        0.0000000000
Pt              -4.0438785050       -4.0438785050       -2.1181554189
Pt              -4.0438785050       -4.0438785050        2.1181554189
Pt              -5.7941883108        0.0000000000       -3.8451917849
Pt              -4.0438785050       -2.1181554189       -4.0438785050
Pt              -3.8451917849       -0.0000000000       -5.7941883108
Pt              -5.8472096220       -1.9513708077       -1.9513708077
Pt              -5.9252114507        0.0000000000       -0.0000000000
Pt              -3.8861092393       -1.9719616763        0.0000000000
Pt              -3.8861092393        0.0000000000       -1.9719616763
Pt              -5.8472096220       -1.9513708077        1.9513708077
Pt              -5.7941883108       -0.0000000000        3.8451917849
Pt              -4.0438785050       -2.1181554189        4.0438785050
Pt              -3.8861092393        0.0000000000        1.9719616763
Pt              -3.8451917849       -0.0000000000        5.7941883108
Pt              -4.0438785050        2.1181554189       -4.0438785050
Pt              -5.8472096220        1.9513708077       -1.9513708077
Pt              -5.7941883108        3.8451917849        0.0000000000
Pt              -3.8861092393        1.9719616763       -0.0000000000
Pt              -4.0438785050        4.0438785050       -2.1181554189
Pt              -5.8472096220        1.9513708077        1.9513708077
Pt              -4.0438785050        2.1181554189        4.0438785050
Pt              -4.0438785050        4.0438785050        2.1181554189
Pt              -3.8451917849        5.7941883108        0.0000000000
Pt              -2.1181554189       -4.0438785050       -4.0438785050
Pt              -0.0000000000       -5.7941883108       -3.8451917849
Pt              -0.0000000000       -3.8451917849       -5.7941883108
Pt              -1.9513708077       -5.8472096220       -1.9513708077
Pt              -1.9719616763       -3.8861092393       -0.0000000000
Pt              -0.0000000000       -5.9252114507        0.0000000000
Pt               0.0000000000       -3.8861092393       -1.9719616763
Pt              -1.9513708077       -5.8472096220        1.9513708077
Pt              -2.1181554189       -4.0438785050        4.0438785050
Pt               0.0000000000       -5.7941883108        3.8451917849
Pt               0.0000000000       -3.8861092393        1.9719616763
Pt              -0.0000000000       -3.8451917849        5.7941883108
Pt              -1.9513708077       -1.9513708077       -5.8472096220
Pt              -1.9719616763        0.0000000000       -3.8861092393
Pt              -0.0000000000       -1.9719616763       -3.8861092393
Pt               0.0000000000       -0.0000000000       -5.9252114507
Pt              -2.0218509982       -2.0218509982       -2.0218509982
Pt              -1.9671817383        0.0000000000       -0.0000000000
Pt              -0.0000000000       -1.9671817383       -0.0000000000
Pt              -0.0000000000        0.0000000000       -1.9671817383
Pt              -2.0218509982       -2.0218509982        2.0218509982
Pt              -1.9719616763        0.0000000000        3.8861092393
Pt              -0.0000000000       -1.9719616763        3.8861092393
Pt               0.0000000000       -0.0000000000        1.9671817383
Pt              -1.9513708077       -1.9513708077        5.8472096220
Pt              -0.0000000000        0.0000000000        5.9252114507
Pt              -1.9513708077        1.9513708077       -5.8472096220
Pt              -2.1181554189        4.0438785050       -4.0438785050
Pt              -0.0000000000        1.9719616763       -3.8861092393
Pt              -0.0000000000        3.8451917849       -5.7941883108
Pt              -2.0218509982        2.0218509982       -2.0218509982
Pt              -1.9719616763        3.8861092393       -0.0000000000
Pt              -0.0000000000        1.9671817383        0.0000000000
Pt               0.0000000000        3.8861092393       -1.9719616763
Pt              -2.0218509982        2.0218509982        2.0218509982
Pt              -2.1181554189        4.0438785050        4.0438785050
Pt               0.0000000000        1.9719616763        3.8861092393
Pt               0.0000000000        3.8861092393        1.9719616763
Pt              -1.9513708077        1.9513708077        5.8472096220
Pt               0.0000000000        3.8451917849        5.7941883108
Pt              -0.0000000000        5.7941883108       -3.8451917849
Pt              -1.9513708077        5.8472096220       -1.9513708077
Pt               0.0000000000        5.9252114507        0.0000000000
Pt              -1.9513708077        5.8472096220        1.9513708077
Pt               0.0000000000        5.7941883108        3.8451917849
Pt               2.1181554189       -4.0438785050       -4.0438785050
Pt               1.9513708077       -5.8472096220       -1.9513708077
Pt               1.9719616763       -3.8861092393       -0.0000000000
Pt               3.8451917849       -5.7941883108        0.0000000000
Pt               4.0438785050       -4.0438785050       -2.1181554189
Pt               1.9513708077       -5.8472096220        1.9513708077
Pt               2.1181554189       -4.0438785050        4.0438785050
Pt               4.0438785050       -4.0438785050        2.1181554189
Pt               1.9513708077       -1.9513708077       -5.8472096220
Pt               1.9719616763        0.0000000000       -3.8861092393
Pt               4.0438785050       -2.1181554189       -4.0438785050
Pt               3.8451917849       -0.0000000000       -5.7941883108
Pt               2.0218509982       -2.0218509982       -2.0218509982
Pt               1.9671817383       -0.0000000000       -0.0000000000
Pt               3.8861092393       -1.9719616763       -0.0000000000
Pt               3.8861092393        0.0000000000       -1.9719616763
Pt               2.0218509982       -2.0218509982        2.0218509982
Pt               1.9719616763       -0.0000000000        3.8861092393
Pt               4.0438785050       -2.1181554189        4.0438785050
Pt               3.8861092393       -0.0000000000        1.9719616763
Pt               1.9513708077       -1.9513708077        5.8472096220
Pt               3.8451917849       -0.0000000000        5.7941883108
Pt               1.9513708077        1.9513708077       -5.8472096220
Pt               2.1181554189        4.0438785050       -4.0438785050
Pt               4.0438785050        2.1181554189       -4.0438785050
Pt               2.0218509982        2.0218509982       -2.0218509982
Pt               1.9719616763        3.8861092393        0.0000000000
Pt               3.8861092393        1.9719616763        0.0000000000
Pt               4.0438785050        4.0438785050       -2.1181554189
Pt               2.0218509982        2.0218509982        2.0218509982
Pt               2.1181554189        4.0438785050        4.0438785050
Pt               4.0438785050        2.1181554189        4.0438785050
Pt               4.0438785050        4.0438785050        2.1181554189
Pt               1.9513708077        1.9513708077        5.8472096220
Pt               1.9513708077        5.8472096220       -1.9513708077
Pt               3.8451917849        5.7941883108        0.0000000000
Pt               1.9513708077        5.8472096220        1.9513708077
Pt               5.7941883108       -3.8451917849       -0.0000000000
Pt               5.7941883108       -0.0000000000       -3.8451917849
Pt               5.8472096220       -1.9513708077       -1.9513708077
Pt               5.9252114507       -0.0000000000        0.0000000000
Pt               5.8472096220       -1.9513708077        1.9513708077
Pt               5.7941883108        0.0000000000        3.8451917849
Pt               5.8472096220        1.9513708077       -1.9513708077
Pt               5.7941883108        3.8451917849       -0.0000000000
Pt               5.8472096220        1.9513708077        1.9513708077

